(set-logic ALL)
(declare-fun var0 () String)
(assert (str.in_re var0 (re.++ (re.+ (re.* (str.to_re "000"))) (re.++ (re.+ (re.+ (str.to_re "111"))) (re.++ (re.+ (re.* (str.to_re "2"))) (re.++ (re.union (re.* (str.to_re "33")) (re.* (str.to_re "444"))) (re.++ (re.union (re.union (str.to_re "55") (str.to_re "66")) (re.union (str.to_re "77") (str.to_re "888"))) (re.++ (re.* (re.* (str.to_re "99"))) (re.++ (re.union (re.* (str.to_re "aaa")) (re.* (str.to_re "b"))) (re.++ (re.+ (re.* (str.to_re "c"))) (re.++ (re.union (re.union (str.to_re "dd") (str.to_re "e")) (re.union (str.to_re "fff") (str.to_re "g"))) (re.++ (re.* (re.* (str.to_re "hh"))) (re.++ (re.union (re.union (str.to_re "iii") (str.to_re "j")) (re.union (str.to_re "kkk") (str.to_re "lll"))) (re.++ (re.* (re.* (str.to_re "mmm"))) (re.++ (re.+ (re.* (str.to_re "n"))) (re.++ (re.* (re.union (str.to_re "ooo") (str.to_re "ppp"))) (re.+ (re.+ (str.to_re "qqq")))))))))))))))))))
(check-sat)